NAME : rnd38_20.tsp
TYPE : TSP
DIMENSION : 20
EDGE_WEIGHT_TYPE : EUC_2D
NODE_COORD_SECTION
1 610 40
2 18 57
3 639 829
4 704 648
5 88 774
6 224 413
7 263 815
8 25 301
9 931 521
10 652 320
11 30 207
12 765 700
13 580 697
14 506 700
15 68 983
16 348 802
17 693 74
18 712 90
19 175 789
20 232 242
